c description: There is a graph of 8 vertices with a 4-clique and a 6-coloring
c generator: CNFgen (0.9.0)
c copyright: (C) 2012-2020 Massimo Lauria <massimo.lauria@uniroma1.it>
c url: https://massimolauria.net/cnfgen
c
p cnf 108 796
-29 -30 0
-29 -31 0
-29 -32 0
-29 -33 0
-29 -34 0
-29 -35 0
-29 -36 0
-30 -31 0
-30 -32 0
-30 -33 0
-30 -34 0
-30 -35 0
-30 -36 0
-31 -32 0
-31 -33 0
-31 -34 0
-31 -35 0
-31 -36 0
-32 -33 0
-32 -34 0
-32 -35 0
-32 -36 0
-33 -34 0
-33 -35 0
-33 -36 0
-34 -35 0
-34 -36 0
-35 -36 0
29 30 31 32 33 34 35 36 0
-37 -38 0
-37 -39 0
-37 -40 0
-37 -41 0
-37 -42 0
-37 -43 0
-37 -44 0
-38 -39 0
-38 -40 0
-38 -41 0
-38 -42 0
-38 -43 0
-38 -44 0
-39 -40 0
-39 -41 0
-39 -42 0
-39 -43 0
-39 -44 0
-40 -41 0
-40 -42 0
-40 -43 0
-40 -44 0
-41 -42 0
-41 -43 0
-41 -44 0
-42 -43 0
-42 -44 0
-43 -44 0
37 38 39 40 41 42 43 44 0
-45 -46 0
-45 -47 0
-45 -48 0
-45 -49 0
-45 -50 0
-45 -51 0
-45 -52 0
-46 -47 0
-46 -48 0
-46 -49 0
-46 -50 0
-46 -51 0
-46 -52 0
-47 -48 0
-47 -49 0
-47 -50 0
-47 -51 0
-47 -52 0
-48 -49 0
-48 -50 0
-48 -51 0
-48 -52 0
-49 -50 0
-49 -51 0
-49 -52 0
-50 -51 0
-50 -52 0
-51 -52 0
45 46 47 48 49 50 51 52 0
-53 -54 0
-53 -55 0
-53 -56 0
-53 -57 0
-53 -58 0
-53 -59 0
-53 -60 0
-54 -55 0
-54 -56 0
-54 -57 0
-54 -58 0
-54 -59 0
-54 -60 0
-55 -56 0
-55 -57 0
-55 -58 0
-55 -59 0
-55 -60 0
-56 -57 0
-56 -58 0
-56 -59 0
-56 -60 0
-57 -58 0
-57 -59 0
-57 -60 0
-58 -59 0
-58 -60 0
-59 -60 0
53 54 55 56 57 58 59 60 0
-29 -37 0
-29 -45 0
-29 -53 0
-37 -45 0
-37 -53 0
-45 -53 0
-30 -38 0
-30 -46 0
-30 -54 0
-38 -46 0
-38 -54 0
-46 -54 0
-31 -39 0
-31 -47 0
-31 -55 0
-39 -47 0
-39 -55 0
-47 -55 0
-32 -40 0
-32 -48 0
-32 -56 0
-40 -48 0
-40 -56 0
-48 -56 0
-33 -41 0
-33 -49 0
-33 -57 0
-41 -49 0
-41 -57 0
-49 -57 0
-34 -42 0
-34 -50 0
-34 -58 0
-42 -50 0
-42 -58 0
-50 -58 0
-35 -43 0
-35 -51 0
-35 -59 0
-43 -51 0
-43 -59 0
-51 -59 0
-36 -44 0
-36 -52 0
-36 -60 0
-44 -52 0
-44 -60 0
-52 -60 0
1 -29 -38 0
1 -29 -46 0
1 -29 -54 0
1 -37 -30 0
1 -37 -46 0
1 -37 -54 0
1 -45 -30 0
1 -45 -38 0
1 -45 -54 0
1 -53 -30 0
1 -53 -38 0
1 -53 -46 0
2 -29 -39 0
2 -29 -47 0
2 -29 -55 0
2 -37 -31 0
2 -37 -47 0
2 -37 -55 0
2 -45 -31 0
2 -45 -39 0
2 -45 -55 0
2 -53 -31 0
2 -53 -39 0
2 -53 -47 0
3 -29 -40 0
3 -29 -48 0
3 -29 -56 0
3 -37 -32 0
3 -37 -48 0
3 -37 -56 0
3 -45 -32 0
3 -45 -40 0
3 -45 -56 0
3 -53 -32 0
3 -53 -40 0
3 -53 -48 0
4 -29 -41 0
4 -29 -49 0
4 -29 -57 0
4 -37 -33 0
4 -37 -49 0
4 -37 -57 0
4 -45 -33 0
4 -45 -41 0
4 -45 -57 0
4 -53 -33 0
4 -53 -41 0
4 -53 -49 0
5 -29 -42 0
5 -29 -50 0
5 -29 -58 0
5 -37 -34 0
5 -37 -50 0
5 -37 -58 0
5 -45 -34 0
5 -45 -42 0
5 -45 -58 0
5 -53 -34 0
5 -53 -42 0
5 -53 -50 0
6 -29 -43 0
6 -29 -51 0
6 -29 -59 0
6 -37 -35 0
6 -37 -51 0
6 -37 -59 0
6 -45 -35 0
6 -45 -43 0
6 -45 -59 0
6 -53 -35 0
6 -53 -43 0
6 -53 -51 0
7 -29 -44 0
7 -29 -52 0
7 -29 -60 0
7 -37 -36 0
7 -37 -52 0
7 -37 -60 0
7 -45 -36 0
7 -45 -44 0
7 -45 -60 0
7 -53 -36 0
7 -53 -44 0
7 -53 -52 0
8 -30 -39 0
8 -30 -47 0
8 -30 -55 0
8 -38 -31 0
8 -38 -47 0
8 -38 -55 0
8 -46 -31 0
8 -46 -39 0
8 -46 -55 0
8 -54 -31 0
8 -54 -39 0
8 -54 -47 0
9 -30 -40 0
9 -30 -48 0
9 -30 -56 0
9 -38 -32 0
9 -38 -48 0
9 -38 -56 0
9 -46 -32 0
9 -46 -40 0
9 -46 -56 0
9 -54 -32 0
9 -54 -40 0
9 -54 -48 0
10 -30 -41 0
10 -30 -49 0
10 -30 -57 0
10 -38 -33 0
10 -38 -49 0
10 -38 -57 0
10 -46 -33 0
10 -46 -41 0
10 -46 -57 0
10 -54 -33 0
10 -54 -41 0
10 -54 -49 0
11 -30 -42 0
11 -30 -50 0
11 -30 -58 0
11 -38 -34 0
11 -38 -50 0
11 -38 -58 0
11 -46 -34 0
11 -46 -42 0
11 -46 -58 0
11 -54 -34 0
11 -54 -42 0
11 -54 -50 0
12 -30 -43 0
12 -30 -51 0
12 -30 -59 0
12 -38 -35 0
12 -38 -51 0
12 -38 -59 0
12 -46 -35 0
12 -46 -43 0
12 -46 -59 0
12 -54 -35 0
12 -54 -43 0
12 -54 -51 0
13 -30 -44 0
13 -30 -52 0
13 -30 -60 0
13 -38 -36 0
13 -38 -52 0
13 -38 -60 0
13 -46 -36 0
13 -46 -44 0
13 -46 -60 0
13 -54 -36 0
13 -54 -44 0
13 -54 -52 0
14 -31 -40 0
14 -31 -48 0
14 -31 -56 0
14 -39 -32 0
14 -39 -48 0
14 -39 -56 0
14 -47 -32 0
14 -47 -40 0
14 -47 -56 0
14 -55 -32 0
14 -55 -40 0
14 -55 -48 0
15 -31 -41 0
15 -31 -49 0
15 -31 -57 0
15 -39 -33 0
15 -39 -49 0
15 -39 -57 0
15 -47 -33 0
15 -47 -41 0
15 -47 -57 0
15 -55 -33 0
15 -55 -41 0
15 -55 -49 0
16 -31 -42 0
16 -31 -50 0
16 -31 -58 0
16 -39 -34 0
16 -39 -50 0
16 -39 -58 0
16 -47 -34 0
16 -47 -42 0
16 -47 -58 0
16 -55 -34 0
16 -55 -42 0
16 -55 -50 0
17 -31 -43 0
17 -31 -51 0
17 -31 -59 0
17 -39 -35 0
17 -39 -51 0
17 -39 -59 0
17 -47 -35 0
17 -47 -43 0
17 -47 -59 0
17 -55 -35 0
17 -55 -43 0
17 -55 -51 0
18 -31 -44 0
18 -31 -52 0
18 -31 -60 0
18 -39 -36 0
18 -39 -52 0
18 -39 -60 0
18 -47 -36 0
18 -47 -44 0
18 -47 -60 0
18 -55 -36 0
18 -55 -44 0
18 -55 -52 0
19 -32 -41 0
19 -32 -49 0
19 -32 -57 0
19 -40 -33 0
19 -40 -49 0
19 -40 -57 0
19 -48 -33 0
19 -48 -41 0
19 -48 -57 0
19 -56 -33 0
19 -56 -41 0
19 -56 -49 0
20 -32 -42 0
20 -32 -50 0
20 -32 -58 0
20 -40 -34 0
20 -40 -50 0
20 -40 -58 0
20 -48 -34 0
20 -48 -42 0
20 -48 -58 0
20 -56 -34 0
20 -56 -42 0
20 -56 -50 0
21 -32 -43 0
21 -32 -51 0
21 -32 -59 0
21 -40 -35 0
21 -40 -51 0
21 -40 -59 0
21 -48 -35 0
21 -48 -43 0
21 -48 -59 0
21 -56 -35 0
21 -56 -43 0
21 -56 -51 0
22 -32 -44 0
22 -32 -52 0
22 -32 -60 0
22 -40 -36 0
22 -40 -52 0
22 -40 -60 0
22 -48 -36 0
22 -48 -44 0
22 -48 -60 0
22 -56 -36 0
22 -56 -44 0
22 -56 -52 0
23 -33 -42 0
23 -33 -50 0
23 -33 -58 0
23 -41 -34 0
23 -41 -50 0
23 -41 -58 0
23 -49 -34 0
23 -49 -42 0
23 -49 -58 0
23 -57 -34 0
23 -57 -42 0
23 -57 -50 0
24 -33 -43 0
24 -33 -51 0
24 -33 -59 0
24 -41 -35 0
24 -41 -51 0
24 -41 -59 0
24 -49 -35 0
24 -49 -43 0
24 -49 -59 0
24 -57 -35 0
24 -57 -43 0
24 -57 -51 0
25 -33 -44 0
25 -33 -52 0
25 -33 -60 0
25 -41 -36 0
25 -41 -52 0
25 -41 -60 0
25 -49 -36 0
25 -49 -44 0
25 -49 -60 0
25 -57 -36 0
25 -57 -44 0
25 -57 -52 0
26 -34 -43 0
26 -34 -51 0
26 -34 -59 0
26 -42 -35 0
26 -42 -51 0
26 -42 -59 0
26 -50 -35 0
26 -50 -43 0
26 -50 -59 0
26 -58 -35 0
26 -58 -43 0
26 -58 -51 0
27 -34 -44 0
27 -34 -52 0
27 -34 -60 0
27 -42 -36 0
27 -42 -52 0
27 -42 -60 0
27 -50 -36 0
27 -50 -44 0
27 -50 -60 0
27 -58 -36 0
27 -58 -44 0
27 -58 -52 0
28 -35 -44 0
28 -35 -52 0
28 -35 -60 0
28 -43 -36 0
28 -43 -52 0
28 -43 -60 0
28 -51 -36 0
28 -51 -44 0
28 -51 -60 0
28 -59 -36 0
28 -59 -44 0
28 -59 -52 0
-61 -62 0
-61 -63 0
-61 -64 0
-61 -65 0
-61 -66 0
-62 -63 0
-62 -64 0
-62 -65 0
-62 -66 0
-63 -64 0
-63 -65 0
-63 -66 0
-64 -65 0
-64 -66 0
-65 -66 0
61 62 63 64 65 66 0
-67 -68 0
-67 -69 0
-67 -70 0
-67 -71 0
-67 -72 0
-68 -69 0
-68 -70 0
-68 -71 0
-68 -72 0
-69 -70 0
-69 -71 0
-69 -72 0
-70 -71 0
-70 -72 0
-71 -72 0
67 68 69 70 71 72 0
-73 -74 0
-73 -75 0
-73 -76 0
-73 -77 0
-73 -78 0
-74 -75 0
-74 -76 0
-74 -77 0
-74 -78 0
-75 -76 0
-75 -77 0
-75 -78 0
-76 -77 0
-76 -78 0
-77 -78 0
73 74 75 76 77 78 0
-79 -80 0
-79 -81 0
-79 -82 0
-79 -83 0
-79 -84 0
-80 -81 0
-80 -82 0
-80 -83 0
-80 -84 0
-81 -82 0
-81 -83 0
-81 -84 0
-82 -83 0
-82 -84 0
-83 -84 0
79 80 81 82 83 84 0
-85 -86 0
-85 -87 0
-85 -88 0
-85 -89 0
-85 -90 0
-86 -87 0
-86 -88 0
-86 -89 0
-86 -90 0
-87 -88 0
-87 -89 0
-87 -90 0
-88 -89 0
-88 -90 0
-89 -90 0
85 86 87 88 89 90 0
-91 -92 0
-91 -93 0
-91 -94 0
-91 -95 0
-91 -96 0
-92 -93 0
-92 -94 0
-92 -95 0
-92 -96 0
-93 -94 0
-93 -95 0
-93 -96 0
-94 -95 0
-94 -96 0
-95 -96 0
91 92 93 94 95 96 0
-97 -98 0
-97 -99 0
-97 -100 0
-97 -101 0
-97 -102 0
-98 -99 0
-98 -100 0
-98 -101 0
-98 -102 0
-99 -100 0
-99 -101 0
-99 -102 0
-100 -101 0
-100 -102 0
-101 -102 0
97 98 99 100 101 102 0
-103 -104 0
-103 -105 0
-103 -106 0
-103 -107 0
-103 -108 0
-104 -105 0
-104 -106 0
-104 -107 0
-104 -108 0
-105 -106 0
-105 -107 0
-105 -108 0
-106 -107 0
-106 -108 0
-107 -108 0
103 104 105 106 107 108 0
-1 -61 -67 0
-1 -62 -68 0
-1 -63 -69 0
-1 -64 -70 0
-1 -65 -71 0
-1 -66 -72 0
-2 -61 -73 0
-2 -62 -74 0
-2 -63 -75 0
-2 -64 -76 0
-2 -65 -77 0
-2 -66 -78 0
-3 -61 -79 0
-3 -62 -80 0
-3 -63 -81 0
-3 -64 -82 0
-3 -65 -83 0
-3 -66 -84 0
-4 -61 -85 0
-4 -62 -86 0
-4 -63 -87 0
-4 -64 -88 0
-4 -65 -89 0
-4 -66 -90 0
-5 -61 -91 0
-5 -62 -92 0
-5 -63 -93 0
-5 -64 -94 0
-5 -65 -95 0
-5 -66 -96 0
-6 -61 -97 0
-6 -62 -98 0
-6 -63 -99 0
-6 -64 -100 0
-6 -65 -101 0
-6 -66 -102 0
-7 -61 -103 0
-7 -62 -104 0
-7 -63 -105 0
-7 -64 -106 0
-7 -65 -107 0
-7 -66 -108 0
-8 -67 -73 0
-8 -68 -74 0
-8 -69 -75 0
-8 -70 -76 0
-8 -71 -77 0
-8 -72 -78 0
-9 -67 -79 0
-9 -68 -80 0
-9 -69 -81 0
-9 -70 -82 0
-9 -71 -83 0
-9 -72 -84 0
-10 -67 -85 0
-10 -68 -86 0
-10 -69 -87 0
-10 -70 -88 0
-10 -71 -89 0
-10 -72 -90 0
-11 -67 -91 0
-11 -68 -92 0
-11 -69 -93 0
-11 -70 -94 0
-11 -71 -95 0
-11 -72 -96 0
-12 -67 -97 0
-12 -68 -98 0
-12 -69 -99 0
-12 -70 -100 0
-12 -71 -101 0
-12 -72 -102 0
-13 -67 -103 0
-13 -68 -104 0
-13 -69 -105 0
-13 -70 -106 0
-13 -71 -107 0
-13 -72 -108 0
-14 -73 -79 0
-14 -74 -80 0
-14 -75 -81 0
-14 -76 -82 0
-14 -77 -83 0
-14 -78 -84 0
-15 -73 -85 0
-15 -74 -86 0
-15 -75 -87 0
-15 -76 -88 0
-15 -77 -89 0
-15 -78 -90 0
-16 -73 -91 0
-16 -74 -92 0
-16 -75 -93 0
-16 -76 -94 0
-16 -77 -95 0
-16 -78 -96 0
-17 -73 -97 0
-17 -74 -98 0
-17 -75 -99 0
-17 -76 -100 0
-17 -77 -101 0
-17 -78 -102 0
-18 -73 -103 0
-18 -74 -104 0
-18 -75 -105 0
-18 -76 -106 0
-18 -77 -107 0
-18 -78 -108 0
-19 -79 -85 0
-19 -80 -86 0
-19 -81 -87 0
-19 -82 -88 0
-19 -83 -89 0
-19 -84 -90 0
-20 -79 -91 0
-20 -80 -92 0
-20 -81 -93 0
-20 -82 -94 0
-20 -83 -95 0
-20 -84 -96 0
-21 -79 -97 0
-21 -80 -98 0
-21 -81 -99 0
-21 -82 -100 0
-21 -83 -101 0
-21 -84 -102 0
-22 -79 -103 0
-22 -80 -104 0
-22 -81 -105 0
-22 -82 -106 0
-22 -83 -107 0
-22 -84 -108 0
-23 -85 -91 0
-23 -86 -92 0
-23 -87 -93 0
-23 -88 -94 0
-23 -89 -95 0
-23 -90 -96 0
-24 -85 -97 0
-24 -86 -98 0
-24 -87 -99 0
-24 -88 -100 0
-24 -89 -101 0
-24 -90 -102 0
-25 -85 -103 0
-25 -86 -104 0
-25 -87 -105 0
-25 -88 -106 0
-25 -89 -107 0
-25 -90 -108 0
-26 -91 -97 0
-26 -92 -98 0
-26 -93 -99 0
-26 -94 -100 0
-26 -95 -101 0
-26 -96 -102 0
-27 -91 -103 0
-27 -92 -104 0
-27 -93 -105 0
-27 -94 -106 0
-27 -95 -107 0
-27 -96 -108 0
-28 -97 -103 0
-28 -98 -104 0
-28 -99 -105 0
-28 -100 -106 0
-28 -101 -107 0
-28 -102 -108 0